
;this file is automatically generated: Thu Jan 02 16:54:47 GMT 2020

;declarations generated

(declare-fun oclExcludes ( Int Int) Bool)
(declare-fun type_df50e0fa_a1e5_48ca_a175_c64506a2c0fa_Class38 ( Int) Bool)
(declare-fun Cardinality ( Int) Int)
(declare-fun obj_56e4e03b_0053_4450_b3a8_5da039cac4b7 ( Int) Int)
(declare-fun oclSelect ( Int Bool) Int)
(declare-fun class38_Class38BoolAttr1 ( Int) Bool)
(declare-fun class38_Class38BoolAttr0 ( Int) Bool)
(declare-fun class38_Class38IntAttr4 ( Int) Int)
(declare-fun class38_Class38IntAttr3 ( Int) Int)
(declare-fun class38_Class38IntAttr2 ( Int) Int)
(declare-fun Enum0 ( Int) Int)
(declare-fun Enum1 ( Int) Int)
(declare-fun Enum2 ( Int) Int)
(declare-fun container_ ( Int) Int)
(declare-fun oclIncludes ( Int Int) Bool)
(declare-fun ObjAt ( Int Int) Int)

;formula(s) generated
(assert (! (forall ((c1 Int)) (=> ( type_df50e0fa_a1e5_48ca_a175_c64506a2c0fa_Class38 c1 )  (> ( class38_Class38IntAttr3 ( obj_56e4e03b_0053_4450_b3a8_5da039cac4b7 c1 )  )  15))):named l0))
(assert (! (or (forall ((v Int)) (=> ( type_df50e0fa_a1e5_48ca_a175_c64506a2c0fa_Class38 v )  (or (> ( class38_Class38IntAttr2 ( obj_56e4e03b_0053_4450_b3a8_5da039cac4b7 v )  )  4) (and (forall ((v Int)) (=> ( type_df50e0fa_a1e5_48ca_a175_c64506a2c0fa_Class38 v )  ( class38_Class38BoolAttr1 ( obj_56e4e03b_0053_4450_b3a8_5da039cac4b7 v )  ) )) (forall ((v Int)) (=> ( type_df50e0fa_a1e5_48ca_a175_c64506a2c0fa_Class38 v )  ( class38_Class38BoolAttr0 ( obj_56e4e03b_0053_4450_b3a8_5da039cac4b7 v )  ) )))))) (forall ((c8_2 Int)(c8_1 Int)) (=> (and ( type_df50e0fa_a1e5_48ca_a175_c64506a2c0fa_Class38 c8_1 )  ( type_df50e0fa_a1e5_48ca_a175_c64506a2c0fa_Class38 c8_2 ) ) (>= ( class38_Class38IntAttr4 ( obj_56e4e03b_0053_4450_b3a8_5da039cac4b7 c8_1 )  )  ( class38_Class38IntAttr3 ( obj_56e4e03b_0053_4450_b3a8_5da039cac4b7 c8_2 )  ) )))):named l1))
(assert (! (forall ((v Int)) (=> ( type_df50e0fa_a1e5_48ca_a175_c64506a2c0fa_Class38 v )  (not (= ( class38_Class38IntAttr2 ( obj_56e4e03b_0053_4450_b3a8_5da039cac4b7 v )  )  13) ))):named l2))
(assert (exists ((o Int)) ( type_df50e0fa_a1e5_48ca_a175_c64506a2c0fa_Class38 ( obj_56e4e03b_0053_4450_b3a8_5da039cac4b7 o )  ) ))

 ;end of formula 